  2   0   0   0   0   0   0   0   0   0   0   0   0   0   0   0   0   0   0   0   0   0   0   0   0   0   0   0   0   0   0   0   0   0   0   0   0   0   0   0   0   0   0   0   0   0   0   0   0   0   0   0   0   0   0   0   0   0   0   0   0   0   0   0   0   0   0   0   0   0   0   0   0   0   0   0   0   0   0   0   0   0   0   0   0   0   0   0   0   0   0   0   0   0   0   0   0   0   0   0   0   0   0   0   0   0   0   0   0   0   0   0   0   0   0   0   0   0   0   0   0   0   0   0   0   0   0   0   0   0   0   0   0   0   0   0   0   0   0   0   0   0   0   0   0   0   0   0   0   0   0   0   0   0   0   0   0   0   0   0   0   0   0   0   0   0   0   0   0   0   0   0   0   0   0   0   0   0   0   0   0   0   0   0   0   0   0   0   0   0   0   0   0   0   0   0   0   0   0   0   0   0   0   0   0   0   0   0   0   0   0   0   0   0   0   0   0   0   0   0   0   0   0   0   0   0   0   0   0   0   0   0   0   0   0   0   0   0   0   0   0   0   0   0   0   0   0   0   0   0   0   0   0   0   0   0   0   0   0   0   0   0   0   0   0   0   0   0   0   0   0   0   0   0   0   0   0   0   0   0   0   0   0   0   0   0   0   0   0   0   0   0   0   0   0   0   0   0   0   0   0   0   0   0   0   0   0   0   0   0   0   0   0   0   0   0   0   0   0   0   0   0   0   0   0   0   0   0   0   0   0   0   0   0   0   0   0   0   0   0   0   0   0   0   0   0   0   0   0   0   0   0   0   0   0   0   0   0   0   0   0   0   0   0   0   0   0   0   0   0   0   0   0   0   0   0   0   0   0   0   0   0   0   0   0   0   0   0   0   0   0   0   0   0   0   0   0   0   0   0   0   0   0   0   0   0   0   0   0   0   0   0   0   0   0   0   0   0   0   0   0   0   0   0   0   0   0   0   0   0   0   0   0   0   0   0   0   0   0   0   0   0   0   0   0   0   0   0   0   0   0   0   0   0   0   0   0   0   0   0   0   0   0   0   0   0   0   0   0   0   0   0   0   0   0   0   0   0   0   0   0   0   0   0   0   0   0   0   0   0   0   0   0   0   0   0   0   0   0   0   0   0   0   0   0   0   0   0   0   0   0   0   0   0   0   0   0   0   0   0   0   0   0   0   0   0   0   0   0   0   0   0   0   0   0   0   0   0   0   0   0   0   0   0   0   0   0   0   0   0   0   0   0   0   0   0   0   0   0   0   0   0   0   0   0   0   0   0   0   0   0   0   0   0   0   0   0   0   0   0   0   0   0   0   0   0   0   0   0   0   0   0   0   0   0   0   0   0   0   0   0   0   0   0   0   0   0   0   0   0   0   0   0   0   0   0   0   0   0   0   0   0   0   0   0   0   0   0   0   0   0   0   0   0   0   0   0   0   0   0   0   0   0   0   0   0   0   0   0   0   0   0   0   0   0   0   0   0   0   0   0   0   0   0   0   0   0   0   0   0   0   0   0   0   0   0   0   0   0   0   0   0   0   0   0   0   0   0   0   0   0   0   0   0   0   0   0   0   0   0   0   0   0   0   0   0   0   0   0   0   0   0   0   0   0   0   0   0   0   0   0   0   0   0   0   0   0   0   0   0   0   0   0   0   0   0   0   0   0   0   0   0   0   0   0   0   0   0   0   0   0   0   0   0   0   0   0   0   0   0   0   0   0   0   0   0   0   0   0   0   0   0   0   0   0   0   0   0   0   0   0   0   0   0   0   0   0   0   0   0   0   0   0   0   0   0   0   0   0   0   0   0   0   0   0   0   0   0   0   0   0   0   0   0   0   0   0   0   0   0   0   0   0   0   0   0   0   0   0   0   0   0   0   0   0   0   0   0   0   0   0   0   0   0   0   0   0   0   0   0   0   0   0   0   0   0   0   0   0   0   0   0   0   0   0   0   0   0   0   0   0   0   0   0   0   0   0   0   0   0   0   0   0   0   0   0   0   0   0   0   0   0   0   0   0   0   0   0   0   0   0   0   0   0   0   0   0   0   0   0   0   0   0   0   0   0   0   0   0   0   0   0   0   0   0   0   0   0   0   0   0   0   0   0   0   0   0   0   0   0   0   0   0   0   0   0   0   0   0   0   0   0   0   0   0   0   0   0   0   0   0   0   0   0   0   0   0   0   0   0   0   0   0   0   0   0   0   0   0   0   0   0   0   0   0   0   0   0   0   0   0   0   0   0   0   0   0   0   0   0 
REMAINING SPACE:      96
ACCUMULATED PRIORITY: 200
EXECUTION TIME:       0.000124300
QTY PRI VAL
[2] 100 202
[0]  96 206
[0]  98 214
[0]  89 202
[0]  88 200
[0]  93 213
[0]  98 230
[0]  85 200
[0]  86 204
[0]  90 214
[0]  84 200
[0]  96 230
[0]  91 219
[0]  92 222
[0]  98 242
[0]  83 205
[0]  86 214
[0]  98 244
[0]  82 206
[0]  80 201
[0]  98 252
[0]  91 236
[0]  77 200
[0]  95 247
[0]  86 224
[0]  76 205
[0]  79 215
[0]  76 208
[0]  93 256
[0]  91 251
[0]  75 207
[0]  80 221
[0]  88 245
[0] 100 279
[0]  92 257
[0]  88 247
[0]  94 267
[0]  71 202
[0]  77 222
[0]  87 251
[0]  97 280
[0]  72 208
[0]  82 237
[0]  82 238
[0]  98 285
[0]  85 249
[0]  88 259
[0]  99 294
[0]  85 254
[0]  94 281
[0]  67 201
[0]  94 283
[0]  79 238
[0]  79 238
[0]  74 223
[0]  98 296
[0]  82 248
[0]  79 239
[0] 100 303
[0]  99 302
[0]  98 299
[0]  74 226
[0]  81 248
[0]  81 248
[0] 100 307
[0]  69 212
[0]  95 295
[0]  66 206
[0]  92 288
[0]  80 251
[0]  94 295
[0]  64 201
[0]  64 201
[0]  79 249
[0]  71 226
[0]  95 303
[0]  83 265
[0]  65 208
[0]  71 229
[0]  65 210
[0]  99 320
[0]  78 253
[0]  72 234
[0]  78 254
[0]  84 274
[0]  87 284
[0]  89 291
[0]  89 291
[0]  92 302
[0]  65 215
[0]  74 245
[0]  61 203
[0]  67 223
[0]  89 298
[0]  82 275
[0]  75 252
[0]  88 296
[0]  93 314
[0]  63 213
[0]  67 227
[0]  93 316
[0]  92 313
[0]  96 328
[0]  96 328
[0]  72 246
[0]  80 274
[0]  77 264
[0]  62 213
[0]  62 213
[0]  68 234
[0]  58 200
[0]  75 259
[0]  77 268
[0]  63 220
[0]  90 316
[0]  82 288
[0]  91 322
[0]  69 245
[0]  93 331
[0]  82 292
[0]  70 250
[0]  94 339
[0]  75 271
[0]  97 351
[0]  79 286
[0]  66 239
[0]  67 243
[0]  97 352
[0]  62 226
[0]  88 321
[0]  97 354
[0]  58 212
[0]  85 311
[0]  77 283
[0]  91 335
[0]  71 262
[0]  81 299
[0]  83 308
[0]  91 338
[0]  84 312
[0]  88 327
[0]  97 361
[0]  67 251
[0]  97 364
[0]  90 338
[0]  91 344
[0]  96 363
[0]  96 364
[0]  92 350
[0]  82 312
[0]  86 328
[0]  81 309
[0]  90 344
[0]  92 353
[0]  52 200
[0]  88 339
[0]  77 297
[0]  73 282
[0]  53 205
[0]  92 356
[0]  79 306
[0]  98 380
[0]  83 322
[0]  92 357
[0]  60 234
[0]  95 371
[0]  54 211
[0]  60 235
[0]  73 286
[0]  74 291
[0]  92 363
[0]  83 329
[0]  90 357
[0]  88 350
[0] 100 398
[0]  56 223
[0]  65 259
[0]  73 291
[0]  74 295
[0]  86 343
[0]  82 329
[0]  57 229
[0]  99 398
[0]  98 394
[0]  92 370
[0]  68 274
[0]  70 283
[0]  65 263
[0]  77 312
[0]  76 308
[0]  95 386
[0]  92 375
[0]  90 368
[0]  87 356
[0]  99 406
[0]  65 267
[0]  80 330
[0] 100 413
[0]  84 347
[0]  91 376
[0]  71 294
[0]  63 261
[0]  81 336
[0]  74 307
[0]  59 245
[0]  97 403
[0]  95 395
[0]  66 276
[0]  85 356
[0]  62 261
[0]  80 337
[0]  85 359
[0]  83 351
[0]  77 326
[0]  64 271
[0]  90 382
[0]  53 225
[0]  93 395
[0]  52 221
[0]  52 221
[0]  86 366
[0]  81 346
[0]  98 419
[0]  82 351
[0]  88 377
[0]  52 223
[0]  97 416
[0]  81 348
[0]  87 374
[0]  92 396
[0]  99 427
[0]  83 358
[0]  50 216
[0]  93 402
[0]  98 424
[0]  93 403
[0]  53 231
[0]  47 205
[0]  91 397
[0]  55 240
[0]  60 262
[0]  65 284
[0]  73 320
[0]  57 250
[0]  75 329
[0]  81 356
[0]  86 379
[0] 100 441
[0]  94 418
[0]  64 285
[0] 100 446
[0]  99 443
[0]  80 358
[0]  46 206
[0]  95 428
[0]  67 302
[0]  75 339
[0]  57 259
[0]  98 446
[0]  65 297
[0]  63 288
[0]  96 440
[0]  48 220
[0]  47 216
[0]  59 272
[0]  57 263
[0]  77 356
[0]  97 451
[0]  80 372
[0]  63 293
[0]  86 400
[0]  69 321
[0]  96 447
[0]  59 275
[0]  52 243
[0]  60 281
[0]  98 459
[0]  93 436
[0]  74 347
[0]  49 230
[0]  57 268
[0]  83 391
[0]  81 382
[0]  43 203
[0]  72 340
[0]  52 246
[0]  75 356
[0]  79 375
[0]  92 437
[0]  64 305
[0]  86 410
[0]  83 396
[0]  72 344
[0]  63 301
[0]  60 287
[0]  83 398
[0]  71 342
[0]  94 453
[0]  67 323
[0]  96 463
[0]  80 386
[0]  46 222
[0]  81 392
[0]  96 465
[0]  47 228
[0]  75 364
[0]  66 321
[0]  88 428
[0]  82 399
[0]  70 341
[0]  60 293
[0]  62 303
[0]  96 470
[0]  77 377
[0]  98 480
[0]  50 246
[0]  67 330
[0]  56 276
[0]  72 355
[0]  95 469
[0]  43 213
[0]  74 367
[0]  61 303
[0]  42 209
[0]  86 428
[0]  99 493
[0]  52 259
[0]  84 419
[0]  88 439
[0]  71 355
[0]  83 415
[0]  56 280
[0]  77 385
[0]  82 411
[0]  76 381
[0]  53 266
[0]  93 467
[0]  79 397
[0]  65 327
[0]  82 413
[0]  80 403
[0]  91 459
[0]  84 424
[0]  50 253
[0]  75 380
[0]  44 223
[0]  49 249
[0]  84 427
[0]  82 417
[0]  92 468
[0]  80 407
[0]  97 494
[0]  49 250
[0]  88 449
[0]  96 490
[0]  46 235
[0]  55 282
[0]  68 350
[0]  64 330
[0]  80 413
[0]  55 284
[0]  84 434
[0]  92 476
[0]  71 368
[0]  74 384
[0]  58 301
[0]  92 478
[0]  51 265
[0]  91 473
[0]  49 255
[0]  43 224
[0]  74 386
[0]  83 433
[0]  68 355
[0]  44 230
[0]  43 225
[0]  77 403
[0]  85 445
[0]  95 498
[0]  91 478
[0]  83 436
[0]  49 258
[0]  63 333
[0]  51 270
[0]  51 270
[0]  51 270
[0]  63 334
[0]  66 350
[0]  84 446
[0]  92 489
[0]  52 277
[0]  42 224
[0]  59 316
[0]  84 450
[0]  67 359
[0]  55 295
[0]  87 467
[0]  80 430
[0]  77 414
[0]  90 484
[0]  79 425
[0]  43 232
[0]  73 394
[0]  68 368
[0]  76 412
[0]  78 423
[0]  52 282
[0]  92 499
[0]  89 484
[0]  71 387
[0]  82 447
[0]  81 442
[0]  59 322
[0]  62 339
[0]  89 487
[0]  43 237
[0]  58 320
[0]  55 304
[0]  60 332
[0]  40 222
[0]  70 389
[0]  85 474
[0]  85 474
[0]  71 397
[0]  76 425
[0]  57 319
[0]  87 487
[0]  86 482
[0]  89 499
[0]  44 248
[0]  66 372
[0]  47 266
[0]  74 419
[0]  83 470
[0]  42 238
[0]  69 392
[0]  52 296
[0]  63 359
[0]  51 292
[0]  38 218
[0]  61 350
[0]  65 373
[0]  68 391
[0]  85 489
[0]  62 357
[0]  80 462
[0]  86 498
[0]  67 389
[0]  58 337
[0]  72 423
[0]  58 342
[0]  69 407
[0]  69 407
[0]  81 478
[0]  83 490
[0]  36 213
[0]  55 327
[0]  56 333
[0]  39 232
[0]  62 369
[0]  46 274
[0]  55 329
[0]  47 282
[0]  73 438
[0]  63 379
[0]  71 428
[0]  79 477
[0]  77 465
[0]  79 478
[0]  71 430
[0]  77 467
[0]  73 443
[0]  80 486
[0]  73 445
[0]  61 372
[0]  66 403
[0]  55 336
[0]  42 257
[0]  40 245
[0]  78 478
[0]  46 282
[0]  53 326
[0]  46 283
[0]  76 468
[0]  80 493
[0]  67 413
[0]  79 487
[0]  78 481
[0]  59 364
[0]  62 383
[0]  39 241
[0]  48 297
[0]  48 297
[0]  52 322
[0]  63 391
[0]  63 391
[0]  33 205
[0]  78 486
[0]  71 443
[0]  60 375
[0]  67 420
[0]  70 439
[0]  61 383
[0]  74 465
[0]  66 415
[0]  69 434
[0]  70 441
[0]  66 416
[0]  69 435
[0]  57 360
[0]  41 259
[0]  78 493
[0]  46 291
[0]  52 329
[0]  73 462
[0]  57 361
[0]  45 285
[0]  74 470
[0]  74 471
[0]  54 344
[0]  63 402
[0]  55 352
[0]  67 429
[0]  69 442
[0]  73 468
[0]  59 379
[0]  56 360
[0]  44 283
[0]  43 277
[0]  58 374
[0]  44 284
[0]  35 226
[0]  56 362
[0]  64 414
[0]  49 317
[0]  66 428
[0]  63 409
[0]  68 442
[0]  31 202
[0]  72 470
[0]  52 340
[0]  52 340
[0]  62 406
[0]  52 341
[0]  34 223
[0]  48 316
[0]  55 363
[0]  41 271
[0]  57 378
[0]  67 445
[0]  45 299
[0]  75 500
[0]  69 461
[0]  66 441
[0]  63 422
[0]  63 423
[0]  67 450
[0]  58 390
[0]  68 460
[0]  67 454
[0]  47 319
[0]  63 428
[0]  50 340
[0]  56 382
[0]  72 493
[0]  63 433
[0]  57 392
[0]  66 454
[0]  33 227
[0]  30 207
[0]  47 326
[0]  55 382
[0]  43 299
[0]  70 487
[0]  63 440
[0]  58 407
[0]  51 359
[0]  64 451
[0]  41 289
[0]  64 453
[0]  33 234
[0]  37 263
[0]  41 292
[0]  52 372
[0]  51 365
[0]  56 406
[0]  68 493
[0]  43 312
[0]  39 286
[0]  41 303
[0]  28 207
[0]  28 207
[0]  62 459
[0]  45 334
[0]  33 245
[0]  54 401
[0]  38 283
[0]  62 462
[0]  55 410
[0]  50 374
[0]  56 419
[0]  58 434
[0]  48 360
[0]  48 360
[0]  44 330
[0]  63 473
[0]  45 338
[0]  61 459
[0]  62 467
[0]  52 392
[0]  60 453
[0]  57 431
[0]  55 416
[0]  63 478
[0]  43 327
[0]  53 404
[0]  52 397
[0]  52 397
[0]  54 413
[0]  65 500
[0]  57 441
[0]  38 294
[0]  53 413
[0]  53 415
[0]  40 314
[0]  61 479
[0]  61 480
[0]  40 316
[0]  59 469
[0]  50 398
[0]  55 438
[0]  28 223
[0]  59 470
[0]  57 455
[0]  57 456
[0]  45 361
[0]  57 458
[0]  42 338
[0]  52 419
[0]  47 379
[0]  53 430
[0]  42 341
[0]  25 203
[0]  58 471
[0]  58 472
[0]  48 393
[0]  59 485
[0]  53 436
[0]  59 487
[0]  31 256
[0]  54 448
[0]  40 334
[0]  48 401
[0]  53 443
[0]  50 419
[0]  48 409
[0]  34 290
[0]  40 342
[0]  40 343
[0]  50 429
[0]  35 302
[0]  38 328
[0]  49 424
[0]  38 330
[0]  23 200
[0]  53 461
[0]  45 392
[0]  52 455
[0]  28 246
[0]  52 459
[0]  48 424
[0]  26 230
[0]  27 239
[0]  48 425
[0]  55 489
[0]  48 427
[0]  40 356
[0]  52 463
[0]  46 410
[0]  39 351
[0]  31 280
[0]  55 497
[0]  46 418
[0]  23 211
[0]  36 331
[0]  22 204
[0]  24 223
[0]  50 466
[0]  46 430
[0]  40 374
[0]  51 477
[0]  22 208
[0]  51 484
[0]  51 484
[0]  38 361
[0]  25 238
[0]  32 306
[0]  40 383
[0]  24 230
[0]  44 423
[0]  39 376
[0]  29 280
[0]  30 290
[0]  51 494
[0]  37 361
[0]  37 363
[0]  32 314
[0]  41 403
[0]  48 472
[0]  47 466
[0]  39 388
[0]  33 329
[0]  46 459
[0]  44 440
[0]  40 400
[0]  29 292
[0]  43 435
[0]  28 286
[0]  32 330
[0]  31 320
[0]  43 446
[0]  26 270
[0]  26 272
[0]  43 450
[0]  45 473
[0]  37 394
[0]  36 386
[0]  30 322
[0]  28 301
[0]  44 473
[0]  32 345
[0]  44 476
[0]  43 466
[0]  33 358
[0]  20 217
[0]  41 445
[0]  39 426
[0]  42 462
[0]  39 432
[0]  38 422
[0]  29 323
[0]  28 312
[0]  40 446
[0]  38 424
[0]  22 246
[0]  31 347
[0]  39 438
[0]  20 225
[0]  22 249
[0]  31 351
[0]  35 397
[0]  43 489
[0]  42 483
[0]  23 265
[0]  26 300
[0]  23 267
[0]  35 408
[0]  21 245
[0]  37 432
[0]  32 374
[0]  27 316
[0]  18 211
[0]  33 388
[0]  27 318
[0]  19 224
[0]  30 359
[0]  39 467
[0]  18 217
[0]  29 350
[0]  21 254
[0]  19 230
[0]  34 415
[0]  21 258
[0]  20 246
[0]  34 420
[0]  30 371
[0]  17 211
[0]  37 460
[0]  25 311
[0]  29 361
[0]  20 249
[0]  19 238
[0]  17 213
[0]  17 213
[0]  32 401
[0]  35 440
[0]  34 428
[0]  34 430
[0]  23 292
[0]  22 280
[0]  23 293
[0]  36 459
[0]  23 296
[0]  28 362
[0]  30 391
[0]  36 472
[0]  19 250
[0]  34 449
[0]  35 463
[0]  29 384
[0]  37 491
[0]  22 292
[0]  36 478
[0]  25 332
[0]  23 308
[0]  21 282
[0]  24 327
[0]  19 259
[0]  34 464
[0]  29 400
[0]  34 470
[0]  33 458
[0]  21 293
[0]  29 407
[0]  16 226
[0]  17 241
[0]  30 427
[0]  27 385
[0]  30 428
[0]  23 329
[0]  26 373
[0]  22 316
[0]  28 403
[0]  34 490
[0]  19 274
[0]  26 376
[0]  30 435
[0]  28 406
[0]  24 350
[0]  15 219
[0]  33 483
[0]  28 411
[0]  16 235
[0]  18 265
[0]  32 475
[0]  26 387
[0]  33 496
[0]  32 483
[0]  20 303
[0]  18 273
[0]  18 275
[0]  27 414
[0]  25 386
[0]  21 325
[0]  30 465
[0]  30 472
[0]  24 378
[0]  20 319
[0]  22 352
[0]  21 337
[0]  30 484
[0]  22 356
[0]  30 487
[0]  13 212
[0]  22 360
[0]  29 475
[0]  25 410
[0]  14 230
[0]  24 396
[0]  14 232
[0]  23 382
[0]  21 360
[0]  25 430
[0]  16 276
[0]  16 276
[0]  20 346
[0]  21 365
[0]  24 421
[0]  21 369
[0]  12 211
[0]  28 495
[0]  14 248
[0]  17 302
[0]  18 320
[0]  19 338
[0]  26 466
[0]  13 233
[0]  27 485
[0]  23 415
[0]  24 436
[0]  16 291
[0]  18 328
[0]  19 352
[0]  16 297
[0]  17 318
[0]  25 468
[0]  18 338
[0]  17 320
[0]  11 208
[0]  24 458
[0]  21 401
[0]  26 497
[0]  25 479
[0]  14 272
[0]  25 487
[0]  17 335
[0]  24 474
[0]  20 396
[0]  16 317
[0]  18 357
[0]  22 437
[0]  15 300
[0]  17 340
[0]  23 462
[0]  14 284
[0]  17 348
[0]  10 206
[0]  16 337
[0]  19 404
[0]  19 404
[0]  13 277
[0]  15 327
[0]  20 439
[0]  15 331
[0]  20 443
[0]  16 355
[0]  10 223
[0]  20 448
[0]  17 381
[0]  12 269
[0]  19 426
[0]  16 359
[0]  19 436
[0]  16 378
[0]  17 404
[0]  21 500
[0]  14 334
[0]  11 264
[0]  18 439
[0]  17 418
[0]  17 418
[0]  14 345
[0]  18 447
[0]  12 299
[0]  16 402
[0]  16 403
[0]  14 354
[0]  15 380
[0]  19 484
[0]  17 437
[0]  10 260
[0]  18 468
[0]  18 470
[0]  16 419
[0]  19 498
[0]  19 498
[0]  18 472
[0]  15 395
[0]  18 479
[0]  17 453
[0]  16 436
[0]  17 465
[0]  17 470
[0]  11 307
[0]  14 391
[0]  13 364
[0]  11 308
[0]  13 366
[0]  16 451
[0]  17 482
[0]  12 345
[0]  12 346
[0]  16 462
[0]  12 347
[0]  11 321
[0]  13 389
[0]  11 336
[0]  16 495
[0]  14 434
[0]  12 372
[0]  10 314
[0]  15 477
[0]  11 352
[0]  15 494
[0]  12 408
[0]  13 443
[0]  14 489
[0]  13 466
[0]  13 470
[0]  12 435
[0]  13 472
[0]  11 402
[0]  13 479
[0]  13 490
[0]  11 425
[0]  12 465
[0]  10 389
[0]  12 469
[0]  12 471
[0]  10 409
[0]  12 494
[0]  12 495
[0]  11 456
[0]  10 419
[0]  11 461
[0]  11 469
[0]  10 468
[0]  10 484
[0]  10 492
[0]  10 495
